solution status: optimal solution found
objective value:                      241465.92646506
d11(0,0)                                            1 	(obj:0)
d11(1,1)                                            1 	(obj:0)
d11(1,2)                                            1 	(obj:0)
d11(2,3)                                            1 	(obj:0)
d11(2,5)                                            1 	(obj:0)
d11(3,7)                                            1 	(obj:0)
d11(3,13)                                           1 	(obj:0)
d11(4,15)                                           1 	(obj:0)
d11(4,17)                                           1 	(obj:0)
d11(4,19)                                           1 	(obj:0)
d11(5,37)                                           1 	(obj:0)
d11(5,51)                                           1 	(obj:0)
d11(6,63)                           0.999999999999985 	(obj:0)
d11(6,65)                           0.999999999999985 	(obj:0)
d11(6,67)                           0.999999999999985 	(obj:0)
d11(6,69)                           0.999999999999985 	(obj:0)
d11(6,75)                           0.999999999999985 	(obj:0)
d11(6,77)                           0.999999999999985 	(obj:0)
d11(6,79)                                           1 	(obj:0)
d11(6,81)                                           1 	(obj:0)
d11(6,85)                           0.999999999999985 	(obj:0)
d11(6,87)                           0.999999999999985 	(obj:0)
d11(6,89)                           0.999999999999985 	(obj:0)
d11(6,91)                           0.999999999999985 	(obj:0)
d11(6,93)                           0.999999999999985 	(obj:0)
d11(6,95)                           0.999999999999985 	(obj:0)
d11(6,97)                           0.999999999999985 	(obj:0)
d11(6,99)                                           1 	(obj:0)
d11(6,101)                          0.999999999999985 	(obj:0)
d11(6,103)                          0.999999999999985 	(obj:0)
d11(6,105)                          0.999999999999985 	(obj:0)
d11(6,107)                          0.999999999999985 	(obj:0)
d11(6,109)                          0.999999999999985 	(obj:0)
d11(6,111)                          0.999999999999985 	(obj:0)
d11(6,113)                          0.999999999999985 	(obj:0)
d11(6,115)                          0.999999999999985 	(obj:0)
d11(6,117)                          0.999999999999985 	(obj:0)
d11(6,119)                          0.999999999999985 	(obj:0)
d11(6,121)                          0.999999999999985 	(obj:0)
d11(6,123)                          0.999999999999985 	(obj:0)
d11(6,125)                          0.999999999999985 	(obj:0)
d12(3,8)                                            1 	(obj:0)
d12(3,10)                                           1 	(obj:0)
d12(3,12)                                           1 	(obj:0)
d12(3,14)                                           1 	(obj:0)
d12(4,16)                                           1 	(obj:0)
d12(4,18)                                           1 	(obj:0)
d12(4,20)                                           1 	(obj:0)
d12(4,22)                                           1 	(obj:0)
d12(4,24)                                           1 	(obj:0)
d12(4,26)                                           1 	(obj:0)
d12(4,28)                                           1 	(obj:0)
d12(4,30)                                           1 	(obj:0)
d12(5,32)                                           1 	(obj:0)
d12(5,34)                                           1 	(obj:0)
d12(5,36)                                           1 	(obj:0)
d12(5,38)                                           1 	(obj:0)
d12(5,40)                                           1 	(obj:0)
d12(5,42)                                           1 	(obj:0)
d12(5,44)                                           1 	(obj:0)
d12(5,46)                                           1 	(obj:0)
d12(5,48)                                           1 	(obj:0)
d12(5,50)                                           1 	(obj:0)
d12(5,52)                                           1 	(obj:0)
d12(5,54)                                           1 	(obj:0)
d12(5,56)                                           1 	(obj:0)
d12(5,58)                                           1 	(obj:0)
d12(5,60)                                           1 	(obj:0)
d12(5,62)                                           1 	(obj:0)
d12(6,64)                                           1 	(obj:0)
d12(6,66)                                           1 	(obj:0)
d12(6,68)                                           1 	(obj:0)
d12(6,70)                                           1 	(obj:0)
d12(6,72)                                           1 	(obj:0)
d12(6,74)                                           1 	(obj:0)
d12(6,76)                                           1 	(obj:0)
d12(6,78)                                           1 	(obj:0)
d12(6,80)                                           1 	(obj:0)
d12(6,82)                                           1 	(obj:0)
d12(6,84)                                           1 	(obj:0)
d12(6,86)                                           1 	(obj:0)
d12(6,88)                                           1 	(obj:0)
d12(6,90)                                           1 	(obj:0)
d12(6,92)                                           1 	(obj:0)
d12(6,94)                                           1 	(obj:0)
d12(6,96)                                           1 	(obj:0)
d12(6,98)                                           1 	(obj:0)
d12(6,100)                                          1 	(obj:0)
d12(6,102)                                          1 	(obj:0)
d12(6,104)                                          1 	(obj:0)
d12(6,106)                                          1 	(obj:0)
d12(6,108)                                          1 	(obj:0)
d12(6,110)                                          1 	(obj:0)
d12(6,112)                                          1 	(obj:0)
d12(6,114)                                          1 	(obj:0)
d12(6,116)                                          1 	(obj:0)
d12(6,118)                                          1 	(obj:0)
d12(6,120)                                          1 	(obj:0)
d12(6,122)                                          1 	(obj:0)
d12(6,124)                                          1 	(obj:0)
d12(6,126)                                          1 	(obj:0)
d21(3,7)                                            1 	(obj:0)
d21(4,15)                                           1 	(obj:0)
d21(4,16)                                           1 	(obj:0)
d21(4,17)                                           1 	(obj:0)
d21(4,19)                                           1 	(obj:0)
d21(4,23)                                           1 	(obj:0)
d21(5,31)                                           1 	(obj:0)
d21(5,32)                                           1 	(obj:0)
d21(5,33)                                           1 	(obj:0)
d21(5,34)                                           1 	(obj:0)
d21(5,35)                                           1 	(obj:0)
d21(5,36)                                           1 	(obj:0)
d21(5,37)                                           1 	(obj:0)
d21(5,39)                                           1 	(obj:0)
d21(5,40)                                           1 	(obj:0)
d21(5,41)                                           1 	(obj:0)
d21(5,43)                                           1 	(obj:0)
d21(5,47)                                           1 	(obj:0)
d21(5,48)                                           1 	(obj:0)
d21(5,49)                                           1 	(obj:0)
d21(5,51)                                           1 	(obj:0)
d21(6,63)                                           1 	(obj:0)
d21(6,64)                                           1 	(obj:0)
d21(6,65)                                           1 	(obj:0)
d21(6,66)                                           1 	(obj:0)
d21(6,67)                                           1 	(obj:0)
d21(6,68)                                           1 	(obj:0)
d21(6,69)                                           1 	(obj:0)
d21(6,70)                                           1 	(obj:0)
d21(6,71)                                           1 	(obj:0)
d21(6,72)                                           1 	(obj:0)
d21(6,73)                                           1 	(obj:0)
d21(6,74)                                           1 	(obj:0)
d21(6,75)                                           1 	(obj:0)
d21(6,76)                                           1 	(obj:0)
d21(6,77)                                           1 	(obj:0)
d21(6,79)                                           1 	(obj:0)
d21(6,80)                                           1 	(obj:0)
d21(6,81)                                           1 	(obj:0)
d21(6,83)                                           1 	(obj:0)
d21(6,87)                                           1 	(obj:0)
d21(6,88)                                           1 	(obj:0)
d21(6,89)                                           1 	(obj:0)
d21(6,91)                                           1 	(obj:0)
d21(6,95)                                           1 	(obj:0)
d21(6,96)                                           1 	(obj:0)
d21(6,97)                                           1 	(obj:0)
d21(6,98)                                           1 	(obj:0)
d21(6,99)                                           1 	(obj:0)
d21(6,103)                                          1 	(obj:0)
d21(6,105)                                          1 	(obj:0)
d21(6,111)                                          1 	(obj:0)
y2(6,100)                            1385.48851144895 	(obj:0)
y2(6,102)                            1385.48851144895 	(obj:0)
y2(6,104)                            1385.48851144895 	(obj:0)
y2(6,106)                            1385.48851144895 	(obj:0)
y2(6,108)                            1385.48851144895 	(obj:0)
y2(6,110)                            1385.48851144895 	(obj:0)
y2(6,112)                            1385.48851144895 	(obj:0)
y2(6,114)                            1385.48851144895 	(obj:0)
y2(6,116)                            1385.48851144895 	(obj:0)
y2(6,118)                            1385.48851144895 	(obj:0)
y2(6,120)                            1385.48851144895 	(obj:0)
y2(6,122)                            1385.48851144895 	(obj:0)
y2(6,124)                            1385.48851144895 	(obj:0)
y2(6,126)                            1385.48851144895 	(obj:0)
STE(1,1)                             5872.57172824699 	(obj:0)
STE(0,0)                                        14175 	(obj:0)
STE(1,2)                             7530.82162713581 	(obj:0)
STE(2,3)                             3080.32182935817 	(obj:0)
STE(2,4)                             4738.57172824699 	(obj:0)
STE(2,5)                             4738.57172824699 	(obj:0)
STE(2,6)                             6396.82162713581 	(obj:0)
STE(3,7)                             1946.32182935821 	(obj:0)
STE(3,8)                             3262.53591523467 	(obj:0)
STE(3,9)                             3604.57172824699 	(obj:0)
STE(3,10)                            4920.78581412349 	(obj:0)
STE(3,11)                            3604.57172824699 	(obj:0)
STE(3,12)                            4920.78581412349 	(obj:0)
STE(3,13)                            5262.82162713585 	(obj:0)
STE(3,14)                            6579.03571301232 	(obj:0)
STE(4,15)                            812.321829358211 	(obj:0)
STE(4,16)                            2128.53591523472 	(obj:0)
STE(4,17)                            2128.53591523467 	(obj:0)
STE(4,18)                            3444.75000111118 	(obj:0)
STE(4,19)                            2470.57172824699 	(obj:0)
STE(4,20)                            3786.78581412349 	(obj:0)
STE(4,21)                            3786.78581412349 	(obj:0)
STE(4,22)                                   5102.9999 	(obj:0)
STE(4,23)                            2470.57172824699 	(obj:0)
STE(4,24)                            3786.78581412349 	(obj:0)
STE(4,25)                            3786.78581412349 	(obj:0)
STE(4,26)                                   5102.9999 	(obj:0)
STE(4,27)                            4128.82162713585 	(obj:0)
STE(4,28)                            5445.03571301236 	(obj:0)
STE(4,29)                            5445.03571301232 	(obj:0)
STE(4,30)                            6761.24979888882 	(obj:0)
STE(5,31)                           -321.678170641789 	(obj:0)
STE(5,32)                            994.535915234717 	(obj:0)
STE(5,33)                            994.535915234717 	(obj:0)
STE(5,34)                            2310.75000111122 	(obj:0)
STE(5,35)                            994.535915234675 	(obj:0)
STE(5,36)                            2310.75000111118 	(obj:0)
STE(5,37)                            2310.75000111122 	(obj:0)
STE(5,38)                            3626.96408698769 	(obj:0)
STE(5,39)                            1336.57172824699 	(obj:0)
STE(5,40)                            2652.78581412349 	(obj:0)
STE(5,41)                            2652.78581412349 	(obj:0)
STE(5,42)                                   3968.9999 	(obj:0)
STE(5,43)                            2652.78581412349 	(obj:0)
STE(5,44)                                   3968.9999 	(obj:0)
STE(5,45)                                   3968.9999 	(obj:0)
STE(5,46)                            5285.21398587651 	(obj:0)
STE(5,47)                            1336.57172824699 	(obj:0)
STE(5,48)                            2652.78581412349 	(obj:0)
STE(5,49)                            2652.78581412349 	(obj:0)
STE(5,50)                                   3968.9999 	(obj:0)
STE(5,51)                            2652.78581412354 	(obj:0)
STE(5,52)                                   3968.9999 	(obj:0)
STE(5,53)                                   3968.9999 	(obj:0)
STE(5,54)                            5285.21398587651 	(obj:0)
STE(5,55)                            2994.82162713585 	(obj:0)
STE(5,56)                            4311.03571301236 	(obj:0)
STE(5,57)                            4311.03571301236 	(obj:0)
STE(5,58)                            5627.24979888887 	(obj:0)
STE(5,59)                            4311.03571301232 	(obj:0)
STE(5,60)                            5627.24979888882 	(obj:0)
STE(5,61)                            5627.24979888882 	(obj:0)
STE(5,62)                            6943.46388476533 	(obj:0)
STE(6,63)                           -1455.67817064179 	(obj:0)
STE(6,64)                           -139.464084765283 	(obj:0)
STE(6,65)                           -139.464084765283 	(obj:0)
STE(6,66)                            1176.75000111122 	(obj:0)
STE(6,67)                           -139.464084765283 	(obj:0)
STE(6,68)                            1176.75000111122 	(obj:0)
STE(6,69)                            1176.75000111122 	(obj:0)
STE(6,70)                            2492.96408698773 	(obj:0)
STE(6,71)                           -139.464084765325 	(obj:0)
STE(6,72)                            1176.75000111118 	(obj:0)
STE(6,73)                            1176.75000111118 	(obj:0)
STE(6,74)                            2492.96408698769 	(obj:0)
STE(6,75)                            1176.75000111122 	(obj:0)
STE(6,76)                            2492.96408698773 	(obj:0)
STE(6,77)                            2492.96408698769 	(obj:0)
STE(6,78)                            3809.17817286419 	(obj:0)
STE(6,79)                            202.571728247032 	(obj:0)
STE(6,80)                             1518.7858141235 	(obj:0)
STE(6,81)                            1518.78581412354 	(obj:0)
STE(6,82)                                   2834.9999 	(obj:0)
STE(6,83)                            1518.78581412349 	(obj:0)
STE(6,84)                                   2834.9999 	(obj:0)
STE(6,85)                                   2834.9999 	(obj:0)
STE(6,86)                            4151.21398587651 	(obj:0)
STE(6,87)                            1518.78581412349 	(obj:0)
STE(6,88)                                   2834.9999 	(obj:0)
STE(6,89)                                   2834.9999 	(obj:0)
STE(6,90)                            4151.21398587651 	(obj:0)
STE(6,91)                                   2834.9999 	(obj:0)
STE(6,92)                            4151.21398587651 	(obj:0)
STE(6,93)                            4151.21398587651 	(obj:0)
STE(6,94)                            5467.42807175301 	(obj:0)
STE(6,95)                            202.571728246988 	(obj:0)
STE(6,96)                            1518.78581412349 	(obj:0)
STE(6,97)                            1518.78581412349 	(obj:0)
STE(6,98)                                   2834.9999 	(obj:0)
STE(6,99)                            1518.78581412354 	(obj:0)
STE(6,100)                                  2834.9999 	(obj:0)
STE(6,101)                                  2834.9999 	(obj:0)
STE(6,102)                           4151.21398587651 	(obj:0)
STE(6,103)                           1518.78581412354 	(obj:0)
STE(6,104)                           2834.99990000004 	(obj:0)
STE(6,105)                                  2834.9999 	(obj:0)
STE(6,106)                           4151.21398587651 	(obj:0)
STE(6,107)                                  2834.9999 	(obj:0)
STE(6,108)                           4151.21398587651 	(obj:0)
STE(6,109)                           4151.21398587651 	(obj:0)
STE(6,110)                           5467.42807175301 	(obj:0)
STE(6,111)                           1860.82162713585 	(obj:0)
STE(6,112)                           3177.03571301236 	(obj:0)
STE(6,113)                           3177.03571301236 	(obj:0)
STE(6,114)                           4493.24979888887 	(obj:0)
STE(6,115)                           3177.03571301236 	(obj:0)
STE(6,116)                           4493.24979888887 	(obj:0)
STE(6,117)                           4493.24979888887 	(obj:0)
STE(6,118)                           5809.46388476537 	(obj:0)
STE(6,119)                           3177.03571301232 	(obj:0)
STE(6,120)                           4493.24979888882 	(obj:0)
STE(6,121)                           4493.24979888882 	(obj:0)
STE(6,122)                           5809.46388476533 	(obj:0)
STE(6,123)                           4493.24979888882 	(obj:0)
STE(6,124)                           5809.46388476533 	(obj:0)
STE(6,125)                           5809.46388476533 	(obj:0)
STE(6,126)                           7125.67797064183 	(obj:0)
BG(6)                                2673.40993877551 	(obj:10)
AVE(1)                               3259.55177567504 	(obj:0)
AVE(2)                               3259.55588804169 	(obj:0)
WB(3)                                3579.36165209166 	(obj:0)
AVE(3)                               3579.36165209166 	(obj:0)
WB(4)                                3579.36576445831 	(obj:0)
AVE(4)                               3579.36576445831 	(obj:0)
WB(5)                                 799.36013916623 	(obj:0)
AVE(5)                               3472.77007794174 	(obj:0)
WB(6)                                 3046.3618950668 	(obj:0)
AVE(6)                                3046.3618950668 	(obj:0)
WG(1)                                3259.55177567504 	(obj:10)
WG(2)                                3259.55588804169 	(obj:10)
WG(5)                                2673.40993877551 	(obj:10)
BG(1)                                5997.10861675123 	(obj:10)
BG(2)                                936.736610937839 	(obj:10)
BG(3)                                2673.40993877551 	(obj:10)
BG(4)                                2673.40993877551 	(obj:10)
y1(1,1)                              6451.58544457771 	(obj:0)
y1(1,2)                              4959.16053557777 	(obj:0)
y1(2,3)                              1492.42490899994 	(obj:0)
y1(2,5)                              1492.42490899994 	(obj:0)
y2(3,8)                              1385.48851144895 	(obj:0)
y2(3,10)                             1385.48851144895 	(obj:0)
y2(3,12)                             1385.48851144895 	(obj:0)
y2(3,14)                             1385.48851144895 	(obj:0)
y2(4,16)                             1385.48851144895 	(obj:0)
y2(4,18)                             1385.48851144895 	(obj:0)
y2(4,20)                             1385.48851144895 	(obj:0)
y2(4,22)                             1385.48851144895 	(obj:0)
y2(4,24)                             1385.48851144895 	(obj:0)
y2(4,26)                             1385.48851144895 	(obj:0)
y2(4,28)                             1385.48851144895 	(obj:0)
y2(4,30)                             1385.48851144895 	(obj:0)
y2(5,32)                             1385.48851144895 	(obj:0)
y2(5,34)                             1385.48851144895 	(obj:0)
y2(5,36)                             1385.48851144895 	(obj:0)
y2(5,38)                             1385.48851144895 	(obj:0)
y2(5,40)                             1385.48851144895 	(obj:0)
y2(5,42)                             1385.48851144895 	(obj:0)
y2(5,44)                             1385.48851144895 	(obj:0)
y2(5,46)                             1385.48851144895 	(obj:0)
y2(5,48)                             1385.48851144895 	(obj:0)
y2(5,50)                             1385.48851144895 	(obj:0)
y2(5,52)                             1385.48851144895 	(obj:0)
y2(5,54)                             1385.48851144895 	(obj:0)
y2(5,56)                             1385.48851144895 	(obj:0)
y2(5,58)                             1385.48851144895 	(obj:0)
y2(5,60)                             1385.48851144895 	(obj:0)
y2(5,62)                             1385.48851144895 	(obj:0)
y2(6,64)                             1385.48851144895 	(obj:0)
y2(6,66)                             1385.48851144895 	(obj:0)
y2(6,68)                             1385.48851144895 	(obj:0)
y2(6,70)                             1385.48851144895 	(obj:0)
y2(6,72)                             1385.48851144895 	(obj:0)
y2(6,74)                             1385.48851144895 	(obj:0)
y2(6,76)                             1385.48851144895 	(obj:0)
y2(6,78)                             1385.48851144895 	(obj:0)
y2(6,80)                             1385.48851144895 	(obj:0)
y2(6,82)                             1385.48851144895 	(obj:0)
y2(6,84)                             1385.48851144895 	(obj:0)
y2(6,86)                             1385.48851144895 	(obj:0)
y2(6,88)                             1385.48851144895 	(obj:0)
y2(6,90)                             1385.48851144895 	(obj:0)
y2(6,92)                             1385.48851144895 	(obj:0)
y2(6,94)                             1385.48851144895 	(obj:0)
y2(6,96)                             1385.48851144895 	(obj:0)
y2(6,98)                             1385.48851144895 	(obj:0)
